p tdp 70 69
36 56
7 33
50 12
46 19
25 64
24 41
30 35
29 2
31 1
65 23
15 33
64 62
13 11
54 15
14 4
60 20
38 53
70 39
5 10
28 65
66 56
55 51
24 64
9 59
47 59
68 8
63 40
63 14
48 35
35 32
67 19
23 6
18 57
20 70
40 13
57 52
44 16
47 49
5 21
44 21
11 24
26 52
69 54
37 60
45 27
9 31
33 42
42 23
67 50
27 34
17 22
22 32
23 64
55 6
3 22
8 27
67 10
56 58
43 31
29 30
24 21
38 43
17 68
2 37
52 39
50 61
59 69
50 32
66 29
